
Gurobi 7.0.2 (mac64, Python) logging started Mon Apr 17 03:23:44 2017

Parameter OutputFlag unchanged
   Value: 1  Min: 0  Max: 1  Default: 1
Changed value of parameter QCPDual to 1
   Prev: 0  Min: 0  Max: 1  Default: 0
Optimize a model with 680 rows, 294 columns and 1988 nonzeros
Variable types: 154 continuous, 140 integer (0 binary)
Coefficient statistics:
  Matrix range     [2e-01, 1e+05]
  Objective range  [1e+00, 1e+01]
  Bounds range     [0e+00, 0e+00]
  RHS range        [1e+00, 1e+01]
Found heuristic solution: objective 0
Presolve removed 565 rows and 155 columns
Presolve time: 0.01s
Presolved: 115 rows, 139 columns, 636 nonzeros
Variable types: 108 continuous, 31 integer (31 binary)

Root relaxation: objective -9.210340e+01, 81 iterations, 0.00 seconds

    Nodes    |    Current Node    |     Objective Bounds      |     Work
 Expl Unexpl |  Obj  Depth IntInf | Incumbent    BestBd   Gap | It/Node Time

     0     0  -92.10340    0    4    0.00000  -92.10340      -     -    0s
H    0     0                     -17.0561859  -92.10340   440%     -    0s
     0     0  -92.10340    0    5  -17.05619  -92.10340   440%     -    0s
     0     0  -92.10340    0    5  -17.05619  -92.10340   440%     -    0s
H    0     0                     -26.9700939  -92.10340   242%     -    0s
     0     0  -92.10340    0    5  -26.97009  -92.10340   242%     -    0s
     0     0  -92.10340    0    5  -26.97009  -92.10340   242%     -    0s
     0     0  -92.10340    0    5  -26.97009  -92.10340   242%     -    0s
     0     2  -92.10340    0    5  -26.97009  -92.10340   242%     -    0s
*    8     7               4     -28.5081964  -92.10340   223%   7.2    0s
*   18    11               7     -28.9346010  -92.10340   218%   6.5    0s
*   19    11               9     -48.7573409  -92.10340  88.9%   6.9    0s
*   29    13              12     -51.3157688  -92.10340  79.5%   6.9    0s
*   36     9              14     -53.0213873  -92.10340  73.7%   6.4    0s
*   60    14              12     -53.1432172  -92.10340  73.3%   5.5    0s
*   67    13              14     -55.5798152  -92.10340  65.7%   5.4    0s
*   69    13              15     -57.2854338  -92.10340  60.8%   5.3    0s
*   82    12              20     -61.1230756  -92.10340  50.7%   5.3    0s
*  120    19              24     -62.3109171  -92.10340  47.8%   5.0    0s
*  139    18              24     -68.2805822  -92.10340  34.9%   4.8    0s
*  217    16              24     -70.7933239  -84.76773  19.7%   4.8    0s

Cutting planes:
  Gomory: 5
  Cover: 1
  MIR: 3

Explored 400 nodes (2153 simplex iterations) in 0.27 seconds
Thread count was 4 (of 4 available processors)

Solution count 10: -70.7933 -68.2806 -62.3109 ... -48.7573
Pool objective bound -70.7933

Optimal solution found (tolerance 1.00e-04)
Best objective -7.079332386882e+01, best bound -7.079332386882e+01, gap 0.0000%
Parameter OutputFlag unchanged
   Value: 1  Min: 0  Max: 1  Default: 1
Changed value of parameter QCPDual to 1
   Prev: 0  Min: 0  Max: 1  Default: 0
Optimize a model with 680 rows, 294 columns and 1988 nonzeros
Variable types: 154 continuous, 140 integer (0 binary)
Coefficient statistics:
  Matrix range     [2e-01, 1e+05]
  Objective range  [1e+00, 1e+01]
  Bounds range     [0e+00, 0e+00]
  RHS range        [1e+00, 1e+01]
Found heuristic solution: objective 0
Presolve removed 565 rows and 155 columns
Presolve time: 0.00s
Presolved: 115 rows, 139 columns, 636 nonzeros
Variable types: 108 continuous, 31 integer (31 binary)

Root relaxation: objective -9.210340e+01, 81 iterations, 0.00 seconds

    Nodes    |    Current Node    |     Objective Bounds      |     Work
 Expl Unexpl |  Obj  Depth IntInf | Incumbent    BestBd   Gap | It/Node Time

     0     0  -92.10340    0    4    0.00000  -92.10340      -     -    0s
H    0     0                     -17.0561859  -92.10340   440%     -    0s
     0     0  -92.10340    0    5  -17.05619  -92.10340   440%     -    0s
     0     0  -92.10340    0    5  -17.05619  -92.10340   440%     -    0s
H    0     0                     -26.9700939  -92.10340   242%     -    0s
     0     0  -92.10340    0    5  -26.97009  -92.10340   242%     -    0s
     0     0  -92.10340    0    5  -26.97009  -92.10340   242%     -    0s
     0     0  -92.10340    0    5  -26.97009  -92.10340   242%     -    0s
     0     2  -92.10340    0    5  -26.97009  -92.10340   242%     -    0s
*    8     7               4     -28.5081964  -92.10340   223%   7.2    0s
*   18    11               7     -28.9346010  -92.10340   218%   6.5    0s
*   19    11               9     -48.7573409  -92.10340  88.9%   6.9    0s
*   29    13              12     -51.3157688  -92.10340  79.5%   6.9    0s
*   36     9              14     -53.0213873  -92.10340  73.7%   6.4    0s
*   60    14              12     -53.1432172  -92.10340  73.3%   5.5    0s
*   67    13              14     -55.5798152  -92.10340  65.7%   5.4    0s
*   69    13              15     -57.2854338  -92.10340  60.8%   5.3    0s
*   82    12              20     -61.1230756  -92.10340  50.7%   5.3    0s
*  120    19              24     -62.3109171  -92.10340  47.8%   5.0    0s
*  139    18              24     -68.2805822  -92.10340  34.9%   4.8    0s
*  217    16              24     -70.7933239  -84.76773  19.7%   4.8    0s

Cutting planes:
  Gomory: 5
  Cover: 1
  MIR: 3

Explored 400 nodes (2153 simplex iterations) in 0.16 seconds
Thread count was 4 (of 4 available processors)

Solution count 10: -70.7933 -68.2806 -62.3109 ... -48.7573
Pool objective bound -70.7933

Optimal solution found (tolerance 1.00e-04)
Best objective -7.079332386882e+01, best bound -7.079332386882e+01, gap 0.0000%
Parameter OutputFlag unchanged
   Value: 1  Min: 0  Max: 1  Default: 1
Changed value of parameter QCPDual to 1
   Prev: 0  Min: 0  Max: 1  Default: 0
Optimize a model with 2919 rows, 1260 columns and 6268 nonzeros
Variable types: 660 continuous, 600 integer (0 binary)
Coefficient statistics:
  Matrix range     [8e-02, 1e+05]
  Objective range  [1e+00, 1e+01]
  Bounds range     [0e+00, 0e+00]
  RHS range        [1e+00, 1e+01]
Found heuristic solution: objective 0
Presolve removed 2792 rows and 1108 columns
Presolve time: 0.01s
Presolved: 127 rows, 152 columns, 685 nonzeros
Variable types: 120 continuous, 32 integer (32 binary)

Root relaxation: objective -9.210340e+01, 108 iterations, 0.00 seconds

    Nodes    |    Current Node    |     Objective Bounds      |     Work
 Expl Unexpl |  Obj  Depth IntInf | Incumbent    BestBd   Gap | It/Node Time

     0     0  -92.10340    0    6    0.00000  -92.10340      -     -    0s
H    0     0                      -8.4062630  -92.10340   996%     -    0s
     0     0  -92.10340    0    4   -8.40626  -92.10340   996%     -    0s
H    0     0                     -24.1629300  -92.10340   281%     -    0s
     0     0  -92.10340    0    6  -24.16293  -92.10340   281%     -    0s
     0     0  -92.10340    0    5  -24.16293  -92.10340   281%     -    0s
H    0     0                     -25.0157393  -92.10340   268%     -    0s
     0     0  -92.10340    0    5  -25.01574  -92.10340   268%     -    0s
     0     0  -92.10340    0    6  -25.01574  -92.10340   268%     -    0s
     0     0  -92.10340    0    6  -25.01574  -92.10340   268%     -    0s
H    0     0                     -26.8279590  -92.10340   243%     -    0s
     0     2  -92.10340    0    6  -26.82796  -92.10340   243%     -    0s
*   47    30              23     -28.4269765  -92.10340   224%   4.1    0s
H   65    45                     -29.1021171  -92.10340   216%   3.8    0s
H   72    29                     -46.8435962  -92.10340  96.6%   4.2    0s
*   88    25              18     -55.4326041  -92.10340  66.2%   4.1    0s
*  119    32              19     -57.3615775  -92.10340  60.6%   4.1    0s
*  159    46              22     -57.9910320  -92.10340  58.8%   4.3    0s
H  180    52                     -59.6357356  -92.10340  54.4%   4.3    0s
*  210    39              26     -62.3261459  -92.10340  47.8%   4.3    0s
*  262    39              24     -63.6053598  -91.75837  44.3%   4.3    0s
*  286    49              22     -63.9403920  -91.75837  43.5%   4.4    0s
H  326    55                     -64.9759462  -84.24910  29.7%   4.3    0s
*  331    53              25     -65.5850957  -84.24910  28.5%   4.3    0s
*  364    41              26     -66.8033947  -80.78236  20.9%   4.4    0s
*  557     7              24     -67.7171189  -78.72648  16.3%   4.5    0s

Cutting planes:
  Gomory: 1
  Cover: 1
  MIR: 7
  Flow cover: 1

Explored 627 nodes (3068 simplex iterations) in 0.34 seconds
Thread count was 4 (of 4 available processors)

Solution count 10: -67.7171 -66.8034 -65.5851 ... -57.3616
Pool objective bound -67.7171

Optimal solution found (tolerance 1.00e-04)
Best objective -6.771711891654e+01, best bound -6.771711891654e+01, gap 0.0000%
Parameter OutputFlag unchanged
   Value: 1  Min: 0  Max: 1  Default: 1
Changed value of parameter QCPDual to 1
   Prev: 0  Min: 0  Max: 1  Default: 0
Optimize a model with 2919 rows, 1260 columns and 6268 nonzeros
Variable types: 660 continuous, 600 integer (0 binary)
Coefficient statistics:
  Matrix range     [8e-02, 1e+05]
  Objective range  [1e+00, 1e+01]
  Bounds range     [0e+00, 0e+00]
  RHS range        [1e+00, 1e+01]
Found heuristic solution: objective 0
Presolve removed 2792 rows and 1108 columns
Presolve time: 0.01s
Presolved: 127 rows, 152 columns, 685 nonzeros
Variable types: 120 continuous, 32 integer (32 binary)

Root relaxation: objective -9.210340e+01, 108 iterations, 0.00 seconds

    Nodes    |    Current Node    |     Objective Bounds      |     Work
 Expl Unexpl |  Obj  Depth IntInf | Incumbent    BestBd   Gap | It/Node Time

     0     0  -92.10340    0    6    0.00000  -92.10340      -     -    0s
H    0     0                      -8.4062630  -92.10340   996%     -    0s
     0     0  -92.10340    0    4   -8.40626  -92.10340   996%     -    0s
H    0     0                     -24.1629300  -92.10340   281%     -    0s
     0     0  -92.10340    0    6  -24.16293  -92.10340   281%     -    0s
     0     0  -92.10340    0    5  -24.16293  -92.10340   281%     -    0s
H    0     0                     -25.0157393  -92.10340   268%     -    0s
     0     0  -92.10340    0    5  -25.01574  -92.10340   268%     -    0s
     0     0  -92.10340    0    6  -25.01574  -92.10340   268%     -    0s
     0     0  -92.10340    0    6  -25.01574  -92.10340   268%     -    0s
H    0     0                     -26.8279590  -92.10340   243%     -    0s
     0     2  -92.10340    0    6  -26.82796  -92.10340   243%     -    0s
*   47    30              23     -28.4269765  -92.10340   224%   4.1    0s
H   65    45                     -29.1021171  -92.10340   216%   3.8    0s
H   72    29                     -46.8435962  -92.10340  96.6%   4.2    0s
*   88    25              18     -55.4326041  -92.10340  66.2%   4.1    0s
*  119    32              19     -57.3615775  -92.10340  60.6%   4.1    0s
*  159    46              22     -57.9910320  -92.10340  58.8%   4.3    0s
H  180    52                     -59.6357356  -92.10340  54.4%   4.3    0s
*  210    39              26     -62.3261459  -92.10340  47.8%   4.3    0s
*  262    39              24     -63.6053598  -91.75837  44.3%   4.3    0s
*  286    49              22     -63.9403920  -91.75837  43.5%   4.4    0s
H  326    55                     -64.9759462  -84.24910  29.7%   4.3    0s
*  331    53              25     -65.5850957  -84.24910  28.5%   4.3    0s
*  364    41              26     -66.8033947  -80.78236  20.9%   4.4    0s
*  557     7              24     -67.7171189  -78.72648  16.3%   4.5    0s

Cutting planes:
  Gomory: 1
  Cover: 1
  MIR: 7
  Flow cover: 1

Explored 627 nodes (3068 simplex iterations) in 0.19 seconds
Thread count was 4 (of 4 available processors)

Solution count 10: -67.7171 -66.8034 -65.5851 ... -57.3616
Pool objective bound -67.7171

Optimal solution found (tolerance 1.00e-04)
Best objective -6.771711891654e+01, best bound -6.771711891654e+01, gap 0.0000%
Parameter OutputFlag unchanged
   Value: 1  Min: 0  Max: 1  Default: 1
Changed value of parameter QCPDual to 1
   Prev: 0  Min: 0  Max: 1  Default: 0
Optimize a model with 2919 rows, 1260 columns and 6268 nonzeros
Variable types: 660 continuous, 600 integer (0 binary)
Coefficient statistics:
  Matrix range     [8e-02, 1e+05]
  Objective range  [1e+00, 1e+01]
  Bounds range     [0e+00, 0e+00]
  RHS range        [1e+00, 1e+01]
Found heuristic solution: objective 0
Presolve removed 2792 rows and 1108 columns
Presolve time: 0.01s
Presolved: 127 rows, 152 columns, 685 nonzeros
Variable types: 120 continuous, 32 integer (32 binary)

Root relaxation: objective -9.210340e+01, 108 iterations, 0.00 seconds

    Nodes    |    Current Node    |     Objective Bounds      |     Work
 Expl Unexpl |  Obj  Depth IntInf | Incumbent    BestBd   Gap | It/Node Time

     0     0  -92.10340    0    6    0.00000  -92.10340      -     -    0s
H    0     0                      -8.4062630  -92.10340   996%     -    0s
     0     0  -92.10340    0    4   -8.40626  -92.10340   996%     -    0s
H    0     0                     -24.1629300  -92.10340   281%     -    0s
     0     0  -92.10340    0    6  -24.16293  -92.10340   281%     -    0s
     0     0  -92.10340    0    5  -24.16293  -92.10340   281%     -    0s
H    0     0                     -25.0157393  -92.10340   268%     -    0s
     0     0  -92.10340    0    5  -25.01574  -92.10340   268%     -    0s
     0     0  -92.10340    0    6  -25.01574  -92.10340   268%     -    0s
     0     0  -92.10340    0    6  -25.01574  -92.10340   268%     -    0s
H    0     0                     -26.8279590  -92.10340   243%     -    0s
     0     2  -92.10340    0    6  -26.82796  -92.10340   243%     -    0s
*   47    30              23     -28.4269765  -92.10340   224%   4.1    0s
H   65    45                     -29.1021171  -92.10340   216%   3.8    0s
H   72    29                     -46.8435962  -92.10340  96.6%   4.2    0s
*   88    25              18     -55.4326041  -92.10340  66.2%   4.1    0s
*  119    32              19     -57.3615775  -92.10340  60.6%   4.1    0s
*  159    46              22     -57.9910320  -92.10340  58.8%   4.3    0s
H  180    52                     -59.6357356  -92.10340  54.4%   4.3    0s
*  210    39              26     -62.3261459  -92.10340  47.8%   4.3    0s
*  262    39              24     -63.6053598  -91.75837  44.3%   4.3    0s
*  286    49              22     -63.9403920  -91.75837  43.5%   4.4    0s
H  326    55                     -64.9759462  -84.24910  29.7%   4.3    0s
*  331    53              25     -65.5850957  -84.24910  28.5%   4.3    0s
*  364    41              26     -66.8033947  -80.78236  20.9%   4.4    0s
*  557     7              24     -67.7171189  -78.72648  16.3%   4.5    0s

Cutting planes:
  Gomory: 1
  Cover: 1
  MIR: 7
  Flow cover: 1

Explored 627 nodes (3068 simplex iterations) in 0.36 seconds
Thread count was 4 (of 4 available processors)

Solution count 10: -67.7171 -66.8034 -65.5851 ... -57.3616
Pool objective bound -67.7171

Optimal solution found (tolerance 1.00e-04)
Best objective -6.771711891654e+01, best bound -6.771711891654e+01, gap 0.0000%
Parameter OutputFlag unchanged
   Value: 1  Min: 0  Max: 1  Default: 1
Changed value of parameter QCPDual to 1
   Prev: 0  Min: 0  Max: 1  Default: 0
Optimize a model with 2919 rows, 1260 columns and 6268 nonzeros
Variable types: 660 continuous, 600 integer (0 binary)
Coefficient statistics:
  Matrix range     [8e-02, 1e+05]
  Objective range  [1e+00, 1e+01]
  Bounds range     [0e+00, 0e+00]
  RHS range        [1e+00, 1e+01]
Found heuristic solution: objective 0
Presolve removed 2792 rows and 1108 columns
Presolve time: 0.01s
Presolved: 127 rows, 152 columns, 685 nonzeros
Variable types: 120 continuous, 32 integer (32 binary)

Root relaxation: objective -9.210340e+01, 108 iterations, 0.00 seconds

    Nodes    |    Current Node    |     Objective Bounds      |     Work
 Expl Unexpl |  Obj  Depth IntInf | Incumbent    BestBd   Gap | It/Node Time

     0     0  -92.10340    0    6    0.00000  -92.10340      -     -    0s
H    0     0                      -8.4062630  -92.10340   996%     -    0s
     0     0  -92.10340    0    4   -8.40626  -92.10340   996%     -    0s
H    0     0                     -24.1629300  -92.10340   281%     -    0s
     0     0  -92.10340    0    6  -24.16293  -92.10340   281%     -    0s
     0     0  -92.10340    0    5  -24.16293  -92.10340   281%     -    0s
H    0     0                     -25.0157393  -92.10340   268%     -    0s
     0     0  -92.10340    0    5  -25.01574  -92.10340   268%     -    0s
     0     0  -92.10340    0    6  -25.01574  -92.10340   268%     -    0s
     0     0  -92.10340    0    6  -25.01574  -92.10340   268%     -    0s
H    0     0                     -26.8279590  -92.10340   243%     -    0s
     0     2  -92.10340    0    6  -26.82796  -92.10340   243%     -    0s
*   47    30              23     -28.4269765  -92.10340   224%   4.1    0s
H   65    45                     -29.1021171  -92.10340   216%   3.8    0s
H   72    29                     -46.8435962  -92.10340  96.6%   4.2    0s
*   88    25              18     -55.4326041  -92.10340  66.2%   4.1    0s
*  119    32              19     -57.3615775  -92.10340  60.6%   4.1    0s
*  159    46              22     -57.9910320  -92.10340  58.8%   4.3    0s
H  180    52                     -59.6357356  -92.10340  54.4%   4.3    0s
*  210    39              26     -62.3261459  -92.10340  47.8%   4.3    0s
*  262    39              24     -63.6053598  -91.75837  44.3%   4.3    0s
*  286    49              22     -63.9403920  -91.75837  43.5%   4.4    0s
H  326    55                     -64.9759462  -84.24910  29.7%   4.3    0s
*  331    53              25     -65.5850957  -84.24910  28.5%   4.3    0s
*  364    41              26     -66.8033947  -80.78236  20.9%   4.4    0s
*  557     7              24     -67.7171189  -78.72648  16.3%   4.5    0s

Cutting planes:
  Gomory: 1
  Cover: 1
  MIR: 7
  Flow cover: 1

Explored 627 nodes (3068 simplex iterations) in 0.24 seconds
Thread count was 4 (of 4 available processors)

Solution count 10: -67.7171 -66.8034 -65.5851 ... -57.3616
Pool objective bound -67.7171

Optimal solution found (tolerance 1.00e-04)
Best objective -6.771711891654e+01, best bound -6.771711891654e+01, gap 0.0000%

Gurobi 7.0.2 (mac64, Python) logging started Mon Apr 17 05:18:06 2017


Gurobi 7.0.2 (mac64, Python) logging started Mon Apr 17 05:19:40 2017


Gurobi 7.0.2 (mac64, Python) logging started Mon Apr 17 05:23:43 2017


Gurobi 7.0.2 (mac64, Python) logging started Mon Apr 17 05:24:14 2017


Gurobi 7.0.2 (mac64, Python) logging started Mon Apr 17 05:24:58 2017


Gurobi 7.0.2 (mac64, Python) logging started Mon Apr 17 05:25:44 2017


Gurobi 7.0.2 (mac64, Python) logging started Mon Apr 17 05:26:18 2017


Gurobi 7.0.2 (mac64, Python) logging started Mon Apr 17 05:29:02 2017


Gurobi 7.0.2 (mac64, Python) logging started Mon Apr 17 05:29:49 2017


Gurobi 7.0.2 (mac64, Python) logging started Mon Apr 17 05:30:28 2017


Gurobi 7.0.2 (mac64, Python) logging started Mon Apr 17 05:31:10 2017


Gurobi 7.0.2 (mac64, Python) logging started Mon Apr 17 05:31:36 2017


Gurobi 7.0.2 (mac64, Python) logging started Mon Apr 17 05:37:32 2017


Gurobi 7.0.2 (mac64, Python) logging started Mon Apr 17 05:37:54 2017


Gurobi 7.0.2 (mac64, Python) logging started Mon Apr 17 05:38:16 2017


Gurobi 7.0.2 (mac64, Python) logging started Mon Apr 17 05:38:44 2017


Gurobi 7.0.2 (mac64, Python) logging started Mon Apr 17 05:40:30 2017


Gurobi 7.0.2 (mac64, Python) logging started Mon Apr 17 05:40:56 2017


Gurobi 7.0.2 (mac64, Python) logging started Mon Apr 17 05:46:48 2017


Gurobi 7.0.2 (mac64, Python) logging started Mon Apr 17 05:48:55 2017


Gurobi 7.0.2 (mac64, Python) logging started Mon Apr 17 05:52:52 2017


Gurobi 7.0.2 (mac64, Python) logging started Mon Apr 17 05:53:12 2017


Gurobi 7.0.2 (mac64, Python) logging started Mon Apr 17 05:53:25 2017


Gurobi 7.0.2 (mac64, Python) logging started Mon Apr 17 05:54:02 2017


Gurobi 7.0.2 (mac64, Python) logging started Mon Apr 17 05:55:29 2017


Gurobi 7.0.2 (mac64, Python) logging started Mon Apr 17 05:56:08 2017


Gurobi 7.0.2 (mac64, Python) logging started Mon Apr 17 05:56:18 2017


Gurobi 7.0.2 (mac64, Python) logging started Mon Apr 17 05:57:15 2017


Gurobi 7.0.2 (mac64, Python) logging started Mon Apr 17 06:00:46 2017


Gurobi 7.0.2 (mac64, Python) logging started Mon Apr 17 06:39:58 2017


Gurobi 7.0.2 (mac64, Python) logging started Mon Apr 17 06:40:45 2017


Gurobi 7.0.2 (mac64, Python) logging started Mon Apr 17 06:41:20 2017


Gurobi 7.0.2 (mac64, Python) logging started Mon Apr 17 06:41:38 2017


Gurobi 7.0.2 (mac64, Python) logging started Mon Apr 17 06:42:11 2017


Gurobi 7.0.2 (mac64, Python) logging started Mon Apr 17 06:42:52 2017


Gurobi 7.0.2 (mac64, Python) logging started Mon Apr 17 06:43:27 2017


Gurobi 7.0.2 (mac64, Python) logging started Mon Apr 17 06:43:54 2017


Gurobi 7.0.2 (mac64, Python) logging started Mon Apr 17 06:44:35 2017


Gurobi 7.0.2 (mac64, Python) logging started Mon Apr 17 06:44:59 2017


Gurobi 7.0.2 (mac64, Python) logging started Mon Apr 17 06:46:00 2017


Gurobi 7.0.2 (mac64, Python) logging started Mon Apr 17 06:47:22 2017


Gurobi 7.0.2 (mac64, Python) logging started Mon Apr 17 06:48:07 2017


Gurobi 7.0.2 (mac64, Python) logging started Mon Apr 17 06:50:18 2017


Gurobi 7.0.2 (mac64, Python) logging started Mon Apr 17 06:56:47 2017


Gurobi 7.0.2 (mac64, Python) logging started Mon Apr 17 06:57:04 2017


Gurobi 7.0.2 (mac64, Python) logging started Mon Apr 17 06:57:22 2017


Gurobi 7.0.2 (mac64, Python) logging started Mon Apr 17 06:57:38 2017


Gurobi 7.0.2 (mac64, Python) logging started Mon Apr 17 06:57:57 2017


Gurobi 7.0.2 (mac64, Python) logging started Mon Apr 17 06:58:18 2017


Gurobi 7.0.2 (mac64, Python) logging started Mon Apr 17 07:08:44 2017


Gurobi 7.0.2 (mac64, Python) logging started Mon Apr 17 07:09:10 2017


Gurobi 7.0.2 (mac64, Python) logging started Mon Apr 17 07:09:51 2017


Gurobi 7.0.2 (mac64, Python) logging started Mon Apr 17 07:10:22 2017


Gurobi 7.0.2 (mac64, Python) logging started Mon Apr 17 07:11:39 2017


Gurobi 7.0.2 (mac64, Python) logging started Mon Apr 17 07:12:02 2017


Gurobi 7.0.2 (mac64, Python) logging started Mon Apr 17 07:12:48 2017


Gurobi 7.0.2 (mac64, Python) logging started Mon Apr 17 07:13:42 2017


Gurobi 7.0.2 (mac64, Python) logging started Mon Apr 17 07:14:37 2017


Gurobi 7.0.2 (mac64, Python) logging started Mon Apr 17 07:15:33 2017


Gurobi 7.0.2 (mac64, Python) logging started Mon Apr 17 07:16:28 2017


Gurobi 7.0.2 (mac64, Python) logging started Mon Apr 17 07:17:27 2017


Gurobi 7.0.2 (mac64, Python) logging started Mon Apr 17 07:18:00 2017


Gurobi 7.0.2 (mac64, Python) logging started Mon Apr 17 07:18:24 2017


Gurobi 7.0.2 (mac64, Python) logging started Mon Apr 17 07:18:50 2017


Gurobi 7.0.2 (mac64, Python) logging started Mon Apr 17 07:22:00 2017


Gurobi 7.0.2 (mac64, Python) logging started Mon Apr 17 07:22:33 2017


Gurobi 7.0.2 (mac64, Python) logging started Mon Apr 17 07:30:51 2017


Gurobi 7.0.2 (mac64, Python) logging started Mon Apr 17 07:34:32 2017


Gurobi 7.0.2 (mac64, Python) logging started Mon Apr 17 07:40:44 2017


Gurobi 7.0.2 (mac64, Python) logging started Mon Apr 17 07:41:28 2017


Gurobi 7.0.2 (mac64, Python) logging started Mon Apr 17 07:41:53 2017


Gurobi 7.0.2 (mac64, Python) logging started Mon Apr 17 07:43:50 2017


Gurobi 7.0.2 (mac64, Python) logging started Mon Apr 17 07:44:43 2017


Gurobi 7.0.2 (mac64, Python) logging started Mon Apr 17 07:45:08 2017


Gurobi 7.0.2 (mac64, Python) logging started Mon Apr 17 07:45:17 2017


Gurobi 7.0.2 (mac64, Python) logging started Mon Apr 17 07:45:49 2017


Gurobi 7.0.2 (mac64, Python) logging started Mon Apr 17 07:46:11 2017


Gurobi 7.0.2 (mac64, Python) logging started Mon Apr 17 07:46:52 2017


Gurobi 7.0.2 (mac64, Python) logging started Mon Apr 17 07:49:00 2017


Gurobi 7.0.2 (mac64, Python) logging started Mon Apr 17 07:49:24 2017


Gurobi 7.0.2 (mac64, Python) logging started Mon Apr 17 07:49:35 2017


Gurobi 7.0.2 (mac64, Python) logging started Mon Apr 17 07:50:11 2017


Gurobi 7.0.2 (mac64, Python) logging started Mon Apr 17 07:51:03 2017


Gurobi 7.0.2 (mac64, Python) logging started Mon Apr 17 07:51:23 2017


Gurobi 7.0.2 (mac64, Python) logging started Mon Apr 17 07:52:03 2017


Gurobi 7.0.2 (mac64, Python) logging started Mon Apr 17 07:52:49 2017


Gurobi 7.0.2 (mac64, Python) logging started Mon Apr 17 07:52:57 2017


Gurobi 7.0.2 (mac64, Python) logging started Mon Apr 17 07:53:13 2017


Gurobi 7.0.2 (mac64, Python) logging started Mon Apr 17 07:53:26 2017


Gurobi 7.0.2 (mac64, Python) logging started Mon Apr 17 07:53:48 2017


Gurobi 7.0.2 (mac64, Python) logging started Mon Apr 17 07:54:13 2017


Gurobi 7.0.2 (mac64, Python) logging started Mon Apr 17 07:54:22 2017


Gurobi 7.0.2 (mac64, Python) logging started Mon Apr 17 07:55:42 2017


Gurobi 7.0.2 (mac64, Python) logging started Mon Apr 17 07:57:36 2017


Gurobi 7.0.2 (mac64, Python) logging started Mon Apr 17 08:04:39 2017


Gurobi 7.0.2 (mac64, Python) logging started Mon Apr 17 08:05:06 2017


Gurobi 7.0.2 (mac64, Python) logging started Mon Apr 17 08:05:33 2017


Gurobi 7.0.2 (mac64, Python) logging started Mon Apr 17 08:07:50 2017


Gurobi 7.0.2 (mac64, Python) logging started Mon Apr 17 08:08:19 2017


Gurobi 7.0.2 (mac64, Python) logging started Mon Apr 17 08:10:11 2017


Gurobi 7.0.2 (mac64, Python) logging started Mon Apr 17 08:10:40 2017


Gurobi 7.0.2 (mac64, Python) logging started Mon Apr 17 08:11:44 2017


Gurobi 7.0.2 (mac64, Python) logging started Mon Apr 17 08:13:18 2017


Gurobi 7.0.2 (mac64, Python) logging started Mon Apr 17 08:15:02 2017


Gurobi 7.0.2 (mac64, Python) logging started Mon Apr 17 08:15:35 2017


Gurobi 7.0.2 (mac64, Python) logging started Mon Apr 17 08:15:57 2017


Gurobi 7.0.2 (mac64, Python) logging started Mon Apr 17 08:16:12 2017


Gurobi 7.0.2 (mac64, Python) logging started Mon Apr 17 08:17:08 2017


Gurobi 7.0.2 (mac64, Python) logging started Mon Apr 17 08:17:38 2017


Gurobi 7.0.2 (mac64, Python) logging started Mon Apr 17 08:18:24 2017


Gurobi 7.0.2 (mac64, Python) logging started Mon Apr 17 08:18:46 2017


Gurobi 7.0.2 (mac64, Python) logging started Mon Apr 17 08:19:12 2017


Gurobi 7.0.2 (mac64, Python) logging started Mon Apr 17 08:19:52 2017


Gurobi 7.0.2 (mac64, Python) logging started Mon Apr 17 08:20:21 2017


Gurobi 7.0.2 (mac64, Python) logging started Mon Apr 17 08:20:59 2017


Gurobi 7.0.2 (mac64, Python) logging started Mon Apr 17 08:22:26 2017


Gurobi 7.0.2 (mac64, Python) logging started Mon Apr 17 08:23:15 2017


Gurobi 7.0.2 (mac64, Python) logging started Mon Apr 17 08:24:46 2017


Gurobi 7.0.2 (mac64, Python) logging started Mon Apr 17 08:25:47 2017


Gurobi 7.0.2 (mac64, Python) logging started Mon Apr 17 08:27:42 2017


Gurobi 7.0.2 (mac64, Python) logging started Mon Apr 17 08:28:19 2017


Gurobi 7.0.2 (mac64, Python) logging started Mon Apr 17 08:28:52 2017


Gurobi 7.0.2 (mac64, Python) logging started Mon Apr 17 08:30:13 2017


Gurobi 7.0.2 (mac64, Python) logging started Mon Apr 17 08:30:42 2017


Gurobi 7.0.2 (mac64, Python) logging started Mon Apr 17 08:30:59 2017


Gurobi 7.0.2 (mac64, Python) logging started Mon Apr 17 08:31:15 2017


Gurobi 7.0.2 (mac64, Python) logging started Mon Apr 17 08:32:17 2017


Gurobi 7.0.2 (mac64, Python) logging started Mon Apr 17 08:33:59 2017


Gurobi 7.0.2 (mac64, Python) logging started Mon Apr 17 08:34:12 2017


Gurobi 7.0.2 (mac64, Python) logging started Mon Apr 17 08:34:32 2017


Gurobi 7.0.2 (mac64, Python) logging started Mon Apr 17 08:34:56 2017


Gurobi 7.0.2 (mac64, Python) logging started Mon Apr 17 08:41:12 2017


Gurobi 7.0.2 (mac64, Python) logging started Mon Apr 17 08:42:29 2017


Gurobi 7.0.2 (mac64, Python) logging started Mon Apr 17 08:42:42 2017


Gurobi 7.0.2 (mac64, Python) logging started Mon Apr 17 08:43:29 2017


Gurobi 7.0.2 (mac64, Python) logging started Mon Apr 17 08:43:58 2017


Gurobi 7.0.2 (mac64, Python) logging started Mon Apr 17 08:52:25 2017


Gurobi 7.0.2 (mac64, Python) logging started Mon Apr 17 08:58:43 2017


Gurobi 7.0.2 (mac64, Python) logging started Mon Apr 17 08:59:11 2017


Gurobi 7.0.2 (mac64, Python) logging started Mon Apr 17 08:59:46 2017


Gurobi 7.0.2 (mac64, Python) logging started Mon Apr 17 09:00:20 2017


Gurobi 7.0.2 (mac64, Python) logging started Mon Apr 17 09:00:56 2017


Gurobi 7.0.2 (mac64, Python) logging started Mon Apr 17 09:02:25 2017


Gurobi 7.0.2 (mac64, Python) logging started Mon Apr 17 09:03:13 2017


Gurobi 7.0.2 (mac64, Python) logging started Mon Apr 17 09:03:56 2017


Gurobi 7.0.2 (mac64, Python) logging started Mon Apr 17 09:04:28 2017


Gurobi 7.0.2 (mac64, Python) logging started Mon Apr 17 09:05:00 2017


Gurobi 7.0.2 (mac64, Python) logging started Mon Apr 17 09:06:02 2017


Gurobi 7.0.2 (mac64, Python) logging started Mon Apr 17 09:06:43 2017


Gurobi 7.0.2 (mac64, Python) logging started Mon Apr 17 09:07:22 2017


Gurobi 7.0.2 (mac64, Python) logging started Mon Apr 17 09:07:43 2017


Gurobi 7.0.2 (mac64, Python) logging started Mon Apr 17 09:07:57 2017


Gurobi 7.0.2 (mac64, Python) logging started Mon Apr 17 09:08:36 2017


Gurobi 7.0.2 (mac64, Python) logging started Mon Apr 17 09:10:17 2017


Gurobi 7.0.2 (mac64, Python) logging started Mon Apr 17 09:10:54 2017


Gurobi 7.0.2 (mac64, Python) logging started Mon Apr 17 09:11:36 2017


Gurobi 7.0.2 (mac64, Python) logging started Mon Apr 17 09:12:01 2017


Gurobi 7.0.2 (mac64, Python) logging started Mon Apr 17 09:12:19 2017


Gurobi 7.0.2 (mac64, Python) logging started Mon Apr 17 09:14:55 2017


Gurobi 7.0.2 (mac64, Python) logging started Mon Apr 17 09:15:15 2017


Gurobi 7.0.2 (mac64, Python) logging started Mon Apr 17 09:16:06 2017


Gurobi 7.0.2 (mac64, Python) logging started Mon Apr 17 09:17:36 2017


Gurobi 7.0.2 (mac64, Python) logging started Mon Apr 17 09:18:16 2017


Gurobi 7.0.2 (mac64, Python) logging started Mon Apr 17 09:19:53 2017


Gurobi 7.0.2 (mac64, Python) logging started Mon Apr 17 09:20:18 2017


Gurobi 7.0.2 (mac64, Python) logging started Mon Apr 17 09:20:37 2017


Gurobi 7.0.2 (mac64, Python) logging started Mon Apr 17 09:21:05 2017


Gurobi 7.0.2 (mac64, Python) logging started Mon Apr 17 09:21:33 2017


Gurobi 7.0.2 (mac64, Python) logging started Mon Apr 17 09:22:40 2017


Gurobi 7.0.2 (mac64, Python) logging started Mon Apr 17 09:23:17 2017


Gurobi 7.0.2 (mac64, Python) logging started Mon Apr 17 09:24:05 2017


Gurobi 7.0.2 (mac64, Python) logging started Mon Apr 17 09:24:56 2017


Gurobi 7.0.2 (mac64, Python) logging started Mon Apr 17 09:26:08 2017


Gurobi 7.0.2 (mac64, Python) logging started Mon Apr 17 09:26:59 2017


Gurobi 7.0.2 (mac64, Python) logging started Mon Apr 17 09:28:06 2017


Gurobi 7.0.2 (mac64, Python) logging started Mon Apr 17 09:29:13 2017


Gurobi 7.0.2 (mac64, Python) logging started Mon Apr 17 09:29:35 2017


Gurobi 7.0.2 (mac64, Python) logging started Mon Apr 17 09:29:48 2017


Gurobi 7.0.2 (mac64, Python) logging started Mon Apr 17 09:30:23 2017


Gurobi 7.0.2 (mac64, Python) logging started Mon Apr 17 09:31:24 2017


Gurobi 7.0.2 (mac64, Python) logging started Mon Apr 17 09:31:50 2017


Gurobi 7.0.2 (mac64, Python) logging started Mon Apr 17 09:32:09 2017


Gurobi 7.0.2 (mac64, Python) logging started Mon Apr 17 09:34:08 2017


Gurobi 7.0.2 (mac64, Python) logging started Mon Apr 17 09:34:43 2017


Gurobi 7.0.2 (mac64, Python) logging started Mon Apr 17 09:36:33 2017


Gurobi 7.0.2 (mac64, Python) logging started Mon Apr 17 09:39:46 2017


Gurobi 7.0.2 (mac64, Python) logging started Mon Apr 17 09:41:19 2017


Gurobi 7.0.2 (mac64, Python) logging started Mon Apr 17 09:41:59 2017


Gurobi 7.0.2 (mac64, Python) logging started Mon Apr 17 09:42:44 2017


Gurobi 7.0.2 (mac64, Python) logging started Mon Apr 17 09:43:33 2017


Gurobi 7.0.2 (mac64, Python) logging started Mon Apr 17 09:44:00 2017


Gurobi 7.0.2 (mac64, Python) logging started Mon Apr 17 09:44:21 2017


Gurobi 7.0.2 (mac64, Python) logging started Mon Apr 17 09:45:00 2017


Gurobi 7.0.2 (mac64, Python) logging started Mon Apr 17 09:45:38 2017


Gurobi 7.0.2 (mac64, Python) logging started Mon Apr 17 09:46:29 2017


Gurobi 7.0.2 (mac64, Python) logging started Mon Apr 17 09:47:34 2017


Gurobi 7.0.2 (mac64, Python) logging started Mon Apr 17 09:48:14 2017


Gurobi 7.0.2 (mac64, Python) logging started Mon Apr 17 09:48:49 2017


Gurobi 7.0.2 (mac64, Python) logging started Mon Apr 17 09:49:14 2017


Gurobi 7.0.2 (mac64, Python) logging started Mon Apr 17 09:50:15 2017


Gurobi 7.0.2 (mac64, Python) logging started Mon Apr 17 09:50:44 2017


Gurobi 7.0.2 (mac64, Python) logging started Mon Apr 17 09:51:18 2017


Gurobi 7.0.2 (mac64, Python) logging started Mon Apr 17 09:52:56 2017


Gurobi 7.0.2 (mac64, Python) logging started Mon Apr 17 09:53:07 2017


Gurobi 7.0.2 (mac64, Python) logging started Mon Apr 17 09:53:56 2017


Gurobi 7.0.2 (mac64, Python) logging started Mon Apr 17 09:54:23 2017


Gurobi 7.0.2 (mac64, Python) logging started Mon Apr 17 09:54:44 2017


Gurobi 7.0.2 (mac64, Python) logging started Mon Apr 17 09:55:13 2017


Gurobi 7.0.2 (mac64, Python) logging started Mon Apr 17 09:55:28 2017


Gurobi 7.0.2 (mac64, Python) logging started Mon Apr 17 09:57:02 2017


Gurobi 7.0.2 (mac64, Python) logging started Mon Apr 17 09:57:32 2017


Gurobi 7.0.2 (mac64, Python) logging started Mon Apr 17 09:58:00 2017


Gurobi 7.0.2 (mac64, Python) logging started Mon Apr 17 09:58:14 2017


Gurobi 7.0.2 (mac64, Python) logging started Mon Apr 17 09:59:08 2017


Gurobi 7.0.2 (mac64, Python) logging started Mon Apr 17 10:01:04 2017


Gurobi 7.0.2 (mac64, Python) logging started Mon Apr 17 10:02:32 2017


Gurobi 7.0.2 (mac64, Python) logging started Mon Apr 17 10:03:12 2017


Gurobi 7.0.2 (mac64, Python) logging started Mon Apr 17 10:03:27 2017


Gurobi 7.0.2 (mac64, Python) logging started Mon Apr 17 10:04:38 2017


Gurobi 7.0.2 (mac64, Python) logging started Mon Apr 17 10:04:54 2017


Gurobi 7.0.2 (mac64, Python) logging started Mon Apr 17 10:06:12 2017


Gurobi 7.0.2 (mac64, Python) logging started Mon Apr 17 10:06:46 2017


Gurobi 7.0.2 (mac64, Python) logging started Mon Apr 17 10:07:01 2017


Gurobi 7.0.2 (mac64, Python) logging started Mon Apr 17 10:07:36 2017


Gurobi 7.0.2 (mac64, Python) logging started Mon Apr 17 10:08:09 2017


Gurobi 7.0.2 (mac64, Python) logging started Mon Apr 17 10:08:30 2017


Gurobi 7.0.2 (mac64, Python) logging started Mon Apr 17 10:08:52 2017


Gurobi 7.0.2 (mac64, Python) logging started Mon Apr 17 10:09:30 2017


Gurobi 7.0.2 (mac64, Python) logging started Mon Apr 17 10:09:55 2017


Gurobi 7.0.2 (mac64, Python) logging started Mon Apr 17 10:10:15 2017


Gurobi 7.0.2 (mac64, Python) logging started Mon Apr 17 10:10:29 2017


Gurobi 7.0.2 (mac64, Python) logging started Mon Apr 17 10:10:44 2017


Gurobi 7.0.2 (mac64, Python) logging started Mon Apr 17 10:10:52 2017


Gurobi 7.0.2 (mac64, Python) logging started Mon Apr 17 10:12:11 2017


Gurobi 7.0.2 (mac64, Python) logging started Mon Apr 17 10:13:04 2017


Gurobi 7.0.2 (mac64, Python) logging started Mon Apr 17 10:13:17 2017


Gurobi 7.0.2 (mac64, Python) logging started Mon Apr 17 10:13:34 2017


Gurobi 7.0.2 (mac64, Python) logging started Mon Apr 17 10:15:58 2017


Gurobi 7.0.2 (mac64, Python) logging started Mon Apr 17 10:16:38 2017


Gurobi 7.0.2 (mac64, Python) logging started Mon Apr 17 10:16:52 2017


Gurobi 7.0.2 (mac64, Python) logging started Mon Apr 17 10:17:09 2017


Gurobi 7.0.2 (mac64, Python) logging started Mon Apr 17 10:19:03 2017


Gurobi 7.0.2 (mac64, Python) logging started Mon Apr 17 10:19:24 2017


Gurobi 7.0.2 (mac64, Python) logging started Mon Apr 17 10:22:28 2017


Gurobi 7.0.2 (mac64, Python) logging started Mon Apr 17 10:23:15 2017


Gurobi 7.0.2 (mac64, Python) logging started Mon Apr 17 10:25:03 2017


Gurobi 7.0.2 (mac64, Python) logging started Mon Apr 17 10:26:38 2017


Gurobi 7.0.2 (mac64, Python) logging started Mon Apr 17 10:29:58 2017


Gurobi 7.0.2 (mac64, Python) logging started Mon Apr 17 10:31:02 2017


Gurobi 7.0.2 (mac64, Python) logging started Mon Apr 17 10:31:23 2017


Gurobi 7.0.2 (mac64, Python) logging started Mon Apr 17 10:35:55 2017


Gurobi 7.0.2 (mac64, Python) logging started Mon Apr 17 10:37:42 2017


Gurobi 7.0.2 (mac64, Python) logging started Mon Apr 17 10:38:01 2017


Gurobi 7.0.2 (mac64, Python) logging started Mon Apr 17 10:38:32 2017


Gurobi 7.0.2 (mac64, Python) logging started Mon Apr 17 10:39:18 2017


Gurobi 7.0.2 (mac64, Python) logging started Mon Apr 17 10:39:53 2017


Gurobi 7.0.2 (mac64, Python) logging started Mon Apr 17 10:40:16 2017

